1 1080 5
2 998 5
3 994 5
5 948 5
7 934 5
11 922 5
12 893 5
15 887 5
21 874 5
51 839 5
152 827 5
187 818 5
726 812 5



1 1082 5
2 963 5
3 902 5
13 837 5
225 824 5
462 817 5
636 805 5



1 1065 5
2 931 5
4 919 5
6 915 5
10 896 5
17 892 5
30 876 5
53 865 5
96 843 5
141 841 5
143 834 5
306 826 5
689 822 5



1 984 5
2 930 5
4 908 5
9 844 5
62 836 5
93 828 5
152 811 5
876 808 5



1 1072 5
2 948 5
6 858 5
15 841 5
52 829 5
148 827 5
337 826 5
757 824 5
803 819 5
952 815 5



